Minimize
  - 22 y_0 - 21 y_1 - 26 y_2 - 25 y_3 - 21 y_4 - 27 y_5 - 21 y_6 - 18 y_7
   - 19 y_8 - 21 y_9 - 14 y_10 - 16 y_11 - 8 y_12 - 21 y_14 - 19 y_15
   - 23 y_16 - 24 y_17 - 24 y_18 - 6 y_19 + 83 x_0_1 + 75 x_0_2 + 84 x_0_6
   + 52 x_0_10 + 61 x_0_12 + 45 x_0_13 + 85 x_0_14 + 36 x_0_15 + 8 x_0_18
   + 56 x_0_19 + 79 x_1_2 + 86 x_1_3 + 11 x_1_7 + 47 x_1_8 + 43 x_1_13
   + 59 x_1_15 + 58 x_1_17 + 85 x_1_18 + 38 x_1_19 + 82 x_2_4 + 14 x_2_5
   + 90 x_2_8 + 85 x_2_9 + 52 x_2_13 + 87 x_2_15 + 46 x_2_19 + 82 x_3_4
   + 94 x_3_5 + 87 x_3_6 + 84 x_3_7 + 48 x_3_8 + 16 x_3_9 + 19 x_3_11
   + 51 x_3_13 + 26 x_3_16 + 96 x_3_17 + 63 x_3_19 + 77 x_4_5 + 11 x_4_6
   + 17 x_4_7 + 40 x_4_8 + 68 x_4_9 + 31 x_4_10 + 12 x_4_14 + 64 x_4_16
   + 64 x_4_17 + 39 x_4_19 + 61 x_5_7 + 90 x_5_8 + 91 x_5_9 + 79 x_5_10
   + 97 x_5_16 + 17 x_5_17 + 38 x_6_10 + 71 x_6_11 + x_6_14 + 61 x_6_15
   + 55 x_6_17 + 37 x_6_19 + 38 x_7_10 + 66 x_7_11 + 37 x_7_13 + 83 x_7_18
   + 30 x_7_19 + 13 x_8_10 + 38 x_8_11 + 38 x_8_13 + 50 x_8_14 + 37 x_9_10
   + 16 x_9_11 + 75 x_9_14 + 17 x_9_18 + 54 x_9_19 + 39 x_10_14
   + 52 x_10_18 + 26 x_11_16 + 44 x_11_19 + 35 x_12_14 + 53 x_12_15
   + 62 x_12_16 + 34 x_12_17 + 65 x_12_18 + 46 x_13_16 + 49 x_13_17
   + 62 x_14_15 + 73 x_14_16 + 55 x_14_17 + 87 x_14_18 + 37 x_14_19
   + 34 x_15_18 + 49 x_15_19 + 95 x_16_17 + 28 x_16_18 + 93 x_17_18
   + 60 x_18_19 + 376 Constant
Subject To
 c_0: y_13 = 1
 c_1_0: y_0 + y_18 >= 1
 c_1_1: y_1 + y_4 + y_6 + y_14 >= 1
 c_1_2: y_2 >= 1
 c_1_3: y_3 + y_18 >= 1
 c_1_4: y_1 + y_4 >= 1
 c_1_5: y_5 >= 1
 c_1_6: y_1 + y_6 + y_7 + y_14 >= 1
 c_1_7: y_6 + y_7 + y_14 >= 1
 c_1_8: y_8 >= 1
 c_1_9: y_9 >= 1
 c_1_10: y_10 >= 1
 c_1_11: y_11 >= 1
 c_1_12: y_12 + y_19 >= 1
 c_1_13: y_13 >= 1
 c_1_14: y_1 + y_6 + y_7 + y_14 >= 1
 c_1_15: y_15 >= 1
 c_1_16: y_16 >= 1
 c_1_17: y_17 >= 1
 c_1_18: y_0 + y_3 + y_18 >= 1
 c_1_19: y_12 + y_19 >= 1
 c_2_0: - 2 y_0 + x_0_1 + x_0_2 + x_0_6 + x_0_10 + x_0_12 + x_0_13 + x_0_14
   + x_0_15 + x_0_18 + x_0_19 = 0
 c_2_1: - 2 y_1 + x_0_1 + x_1_2 + x_1_3 + x_1_7 + x_1_8 + x_1_13 + x_1_15
   + x_1_17 + x_1_18 + x_1_19 = 0
 c_2_2: - 2 y_2 + x_0_2 + x_1_2 + x_2_4 + x_2_5 + x_2_8 + x_2_9 + x_2_13
   + x_2_15 + x_2_19 = 0
 c_2_3: - 2 y_3 + x_1_3 + x_3_4 + x_3_5 + x_3_6 + x_3_7 + x_3_8 + x_3_9
   + x_3_11 + x_3_13 + x_3_16 + x_3_17 + x_3_19 = 0
 c_2_4: - 2 y_4 + x_2_4 + x_3_4 + x_4_5 + x_4_6 + x_4_7 + x_4_8 + x_4_9
   + x_4_10 + x_4_14 + x_4_16 + x_4_17 + x_4_19 = 0
 c_2_5: - 2 y_5 + x_2_5 + x_3_5 + x_4_5 + x_5_7 + x_5_8 + x_5_9 + x_5_10
   + x_5_16 + x_5_17 = 0
 c_2_6: - 2 y_6 + x_0_6 + x_3_6 + x_4_6 + x_6_10 + x_6_11 + x_6_14 + x_6_15
   + x_6_17 + x_6_19 = 0
 c_2_7: - 2 y_7 + x_1_7 + x_3_7 + x_4_7 + x_5_7 + x_7_10 + x_7_11 + x_7_13
   + x_7_18 + x_7_19 = 0
 c_2_8: - 2 y_8 + x_1_8 + x_2_8 + x_3_8 + x_4_8 + x_5_8 + x_8_10 + x_8_11
   + x_8_13 + x_8_14 = 0
 c_2_9: - 2 y_9 + x_2_9 + x_3_9 + x_4_9 + x_5_9 + x_9_10 + x_9_11 + x_9_14
   + x_9_18 + x_9_19 = 0
 c_2_10: - 2 y_10 + x_0_10 + x_4_10 + x_5_10 + x_6_10 + x_7_10 + x_8_10
   + x_9_10 + x_10_14 + x_10_18 = 0
 c_2_11: - 2 y_11 + x_3_11 + x_6_11 + x_7_11 + x_8_11 + x_9_11 + x_11_16
   + x_11_19 = 0
 c_2_12: - 2 y_12 + x_0_12 + x_12_14 + x_12_15 + x_12_16 + x_12_17
   + x_12_18 = 0
 c_2_13: - 2 y_13 + x_0_13 + x_1_13 + x_2_13 + x_3_13 + x_7_13 + x_8_13
   + x_13_16 + x_13_17 = 0
 c_2_14: - 2 y_14 + x_0_14 + x_4_14 + x_6_14 + x_8_14 + x_9_14 + x_10_14
   + x_12_14 + x_14_15 + x_14_16 + x_14_17 + x_14_18 + x_14_19 = 0
 c_2_15: - 2 y_15 + x_0_15 + x_1_15 + x_2_15 + x_6_15 + x_12_15 + x_14_15
   + x_15_18 + x_15_19 = 0
 c_2_16: - 2 y_16 + x_3_16 + x_4_16 + x_5_16 + x_11_16 + x_12_16 + x_13_16
   + x_14_16 + x_16_17 + x_16_18 = 0
 c_2_17: - 2 y_17 + x_1_17 + x_3_17 + x_4_17 + x_5_17 + x_6_17 + x_12_17
   + x_13_17 + x_14_17 + x_16_17 + x_17_18 = 0
 c_2_18: - 2 y_18 + x_0_18 + x_1_18 + x_7_18 + x_9_18 + x_10_18 + x_12_18
   + x_14_18 + x_15_18 + x_16_18 + x_17_18 + x_18_19 = 0
 c_2_19: - 2 y_19 + x_0_19 + x_1_19 + x_2_19 + x_3_19 + x_4_19 + x_6_19
   + x_7_19 + x_9_19 + x_11_19 + x_14_19 + x_15_19 + x_18_19 = 0
Bounds
 Constant = 1
Binaries
 y_0 y_1 y_2 y_3 y_4 y_5 y_6 y_7 y_8 y_9 y_10 y_11 y_12 y_13 y_14 y_15 y_16
 y_17 y_18 y_19 x_0_1 x_0_2 x_0_6 x_0_10 x_0_12 x_0_13 x_0_14 x_0_15 x_0_18
 x_0_19 x_1_2 x_1_3 x_1_7 x_1_8 x_1_13 x_1_15 x_1_17 x_1_18 x_1_19 x_2_4
 x_2_5 x_2_8 x_2_9 x_2_13 x_2_15 x_2_19 x_3_4 x_3_5 x_3_6 x_3_7 x_3_8 x_3_9
 x_3_11 x_3_13 x_3_16 x_3_17 x_3_19 x_4_5 x_4_6 x_4_7 x_4_8 x_4_9 x_4_10
 x_4_14 x_4_16 x_4_17 x_4_19 x_5_7 x_5_8 x_5_9 x_5_10 x_5_16 x_5_17 x_6_10
 x_6_11 x_6_14 x_6_15 x_6_17 x_6_19 x_7_10 x_7_11 x_7_13 x_7_18 x_7_19
 x_8_10 x_8_11 x_8_13 x_8_14 x_9_10 x_9_11 x_9_14 x_9_18 x_9_19 x_10_14
 x_10_18 x_11_16 x_11_19 x_12_14 x_12_15 x_12_16 x_12_17 x_12_18 x_13_16
 x_13_17 x_14_15 x_14_16 x_14_17 x_14_18 x_14_19 x_15_18 x_15_19 x_16_17
 x_16_18 x_17_18 x_18_19
End
